c ---- [ banner ] ------------------------------------------------------------
c
c Kissat SAT Solver
c 
c Copyright (c) 2021-2022 Armin Biere University of Freiburg
c Copyright (c) 2019-2021 Armin Biere Johannes Kepler University Linz
c 
c Version 3.0.0 97917ddf2b12adc6f63c7b2a5a403a1ee7d81836
c gcc (Ubuntu 9.4.0-1ubuntu1~20.04.1) 9.4.0 -W -Wall -O3 -DNDEBUG
c Fri Oct 7 14:23:58 PDT 2022 Linux jap-Lenovo-Yoga-C740-15IML 5.15.0-48-generic x86_64
c
c ---- [ parsing ] -----------------------------------------------------------
c
c opened and reading DIMACS file:
c
c   Pigeon8Holes4
c
c parsed 'p cnf 32 120' header
c closing input after reading 1173 bytes (1 KB)
c finished parsing after 0.00 seconds
c
c ---- [ solving ] -----------------------------------------------------------
c
c  seconds switched rate      trail  variables
c         MB reductions conflicts glue   remaining
c          level restarts redundant irredundant
c
c *  0.00  1 0 0 0  0 0   0   0 0% 0 120 32 97%
c {  0.00  1 0 0 0  0 0   0   0 0% 0 120 32 97%
c i  0.00  1 3 0 0  0 1  10   9 93% 1 120 31 94%
c i  0.00  1 4 0 0  0 1  31  28 92% 2 120 23 70%
c i  0.00  1 4 0 0  0 1  32  28 92% 2 120 21 64%
c i  0.00  1 4 0 0  0 1  33  28 92% 2 120 19 58%
c }  0.00  1 4 0 0  0 1  35  28 92% 2 120  0 0%
c 0  0.00  1 4 0 0  0 1  35  28 92% 2 120  0 0%
c
c ---- [ result ] ------------------------------------------------------------
c
s UNSATISFIABLE
c
c ---- [ profiling ] ---------------------------------------------------------
c
c           0.00   63.16 %  search
c           0.00   49.29 %  focused
c           0.00   18.68 %  parse
c           0.00    0.00 %  simplify
c =============================================
c           0.00  100.00 %  total
c
c ---- [ statistics ] --------------------------------------------------------
c
c conflicts:                               35            21631.64 per second
c decisions:                               43                1.23 per conflict
c propagations:                           512           316440    per second
c
c ---- [ resources ] ---------------------------------------------------------
c
c maximum-resident-set-size:           991232 bytes          1 MB
c process-time:                                              0.00 seconds
c
c ---- [ shutting down ] -----------------------------------------------------
c
c exit 20
